(declare-const delta_j Int)
(declare-const delta_cont_aux Int)
(assert (exists
         ((|cont_aux'?1| Int) (|j'?2| Int) (tr?3 Int) (tr?4 Int)
            (phi_cont_aux?5 Int) (tr?6 Int) (tr?7 Int) (cont_aux?8 Int)
            (j?9 Int))
         (and (<= (- cont_aux?8) 0) (<= (- j?9) 0) (<= (+ j?9 -9) 0)
                (or (and (or (<= (+ (- tr?6) tr?7 1) 0)
                               (<= (+ tr?6 (- tr?7) 1) 0))
                           (= (+ (- phi_cont_aux?5) cont_aux?8) 0))
                      (and (= (+ (- tr?3) tr?4) 0)
                             (= (+ (- phi_cont_aux?5) cont_aux?8 1) 0)))
                (= (+ |cont_aux'?1| (- phi_cont_aux?5)) 0)
                (= (+ |j'?2| (- j?9) -1) 0) (= delta_j (+ |j'?2| (- j?9)))
                (= delta_cont_aux (+ |cont_aux'?1| (- cont_aux?8))))))
(check-sat)
